5 5
1 85 2 79 3 57 4 82 0 10
1 22 3 44 2 84 0 83 4 28
0 50 1 51 2 1 4 34 3 35
1 90 2 61 0 30 4 76 3 78
1 68 0 76 3 88 2 40 4 95
-1
0 2 4 5
0 1 3 4 5
0 2 5
0 1 3 5
0 2 3 5
-2
256 357 348
33 200 253 354
157 273
102 195 478
171 244 432

556 12
10 21 4 17 8
0 20 15 5 11
1 16 12 23 7
2 22 6 19 14
3 13 18 24 9
